32	0

0	2	2	3
7	2	4	5
8	1	5
10	1	6
4	1	6
1	1	7
1	1	8
10	1	9
10	2	10	11
2	1	12
8	1	12
3	1	13
3	3	14	15	16
6	3	17	18	19
9	2	18	19
7	3	17	18	19
3	2	20	21
2	2	20	21
8	1	22
3	1	22
5	1	22
6	2	23	24
5	1	25
4	1	25
7	2	26	27
6	2	28	29
6	2	28	29
6	2	30	31
2	2	30	31
3	1	32
4	1	32
0	0
